IBRION=0

#ISTART=0
#ICHARG=1

NSW=3
TEBEG=1000
ISIF=2
MDALGO=2
NELMIN=6

ENCUT = 250
ISYM = 0

SMASS = 1.0
LREAL = Auto
ALGO = VeryFast
PREC = Normal

SIGMA = 0.1
ISMEAR = 0
POTIM = 1.0
