W128                                    
   1.00000000000000     
    12.7496559999999999    0.0000000000000000    0.0000000000000000
     0.0000000000000000   12.7496559999999999    0.0000000000000000
     0.0000000000000000    0.0000000000000000   12.7496559999999999
   W 
   128
Direct
  0.0012021350929760  0.0000390732909049 -0.0011588219016848
  0.0005002898057242  0.0008997702384806  0.2492604818351784
  0.0000410753919303  0.0000373468544512  0.5003955460562657
 -0.0001506884755579  0.0005414485869943  0.7495986598338551
 -0.0016391828209382  0.2491801725120759 -0.0000638896464936
 -0.0000656459935900  0.2500507695592418  0.2489259348779640
 -0.0000937752426760  0.2505999685599757  0.5006362824013055
 -0.0002196851092634  0.2504370562763672  0.7502446080953888
 -0.0001395544361421  0.4989741510940069  0.0012301263821360
  0.0003149029777658  0.4993528915518541  0.2507890351837229
 -0.0006306222338766  0.4994507728600135  0.5001823017043064
  0.0004255550349563  0.5002719392984708  0.7509104298816649
 -0.0002045779269596  0.7501001136769432 -0.0001711742131575
  0.0003539786473177  0.7493553337108328  0.2497297152543334
 -0.0009824893851963  0.7495864868307954  0.4999380958002624
 -0.0015142863701619  0.7500997629387625  0.7506352461992610
  0.2500927740310645 -0.0001595380483009 -0.0003488503678782
  0.2501358507689154  0.0014030668852637  0.2503643595770039
  0.2497157136913115  0.0003255851874837  0.5003582961298875
  0.2503723773981916  0.0000858992013519  0.7504567360659240
  0.2492412516943208  0.2502330249137618 -0.0004931639242250
  0.2509456525508949  0.2490472380308732  0.2494011323387706
  0.2506294817421520  0.2493091889391875  0.5000646763533313
  0.2496686136676037  0.2500461067073869  0.7506629522088475
  0.2500924704499864  0.5000833683229768  0.0003918598743698
  0.2497814454484635  0.5000760314790936  0.2505484905115534
  0.2490984432901876  0.5014289548253287  0.4995478787984153
  0.2500187784796855  0.5014366191683731  0.7498985171660579
  0.2487234129974915  0.7498507709187699 -0.0000128453629121
  0.2507840873866594  0.7502457070373476  0.2498345141192155
  0.2486795579576440  0.7494264008279542  0.5000082251386646
  0.2502357909325773  0.7500157367586627  0.7507074356451047
  0.5008092992691060 -0.0000647507042641  0.0007262012253873
  0.5010913689617732 -0.0005795164734744  0.2502666482419348
  0.4997538712047633 -0.0003769312197003  0.4999234515887623
  0.4996235273502735  0.0001600002556269  0.7494075822102683
  0.5003434094941311  0.2513695681692356 -0.0011372738656076
  0.5006157616937952  0.2488291384423316  0.2505259603835562
  0.4996243371676408  0.2503492273488493  0.5002373884101599
  0.5003074614530530  0.2515148214276592  0.7503232012645927
  0.4997588353078195  0.5003303846993227  0.0001789845300924
  0.5002122530342223  0.4992411697288393  0.2493521566237099
  0.4991059144064133  0.5007570570057746  0.4992322816816089
  0.4999137113676977  0.5006100817890665  0.7504108612986483
  0.4987983394451139  0.7499100801278947  0.0000647849773582
  0.5003054237623255  0.7502065605351872  0.2500585515449223
  0.4998357100679369  0.7504725430881797  0.4985181816374427
  0.4992980353780957  0.7502659335985746  0.7514478059794373
  0.7507051434738525 -0.0004151588676561  0.0000196039317932
  0.7502696244402034 -0.0006806355914944  0.2501819054757129
  0.7491812988871350 -0.0000755387625668  0.4992666550255810
  0.7492719910951068  0.0004423684757553  0.7491928752924099
  0.7497540546121606  0.2491974244925175  0.0006677529976879
  0.7491813000502391  0.2496938989292257  0.2496524742403038
  0.7499354332267721  0.2484999637965232  0.5005335116164354
  0.7511133879248914  0.2507243287794540  0.7501868361719947
  0.7501529689473158  0.4994073048073916  0.0003603992809098
  0.7484931035093911  0.4992564190246273  0.2491980018644380
  0.7502933059294031  0.5001504185449326  0.4997706723337216
  0.7503113939573208  0.4983895912607527  0.7506809974873041
  0.7510114922336188  0.7496095511484082  0.0003198760014837
  0.7498468372274711  0.7495168859094538  0.2502526468742351
  0.7501208945902670  0.7495981575378191  0.4996976900666547
  0.7503768471333228  0.7498357656286313  0.7504659572872856
  0.1237703950660870  0.1248383182560321  0.1256874473433574
  0.1248612431034046  0.1264688798693987  0.3755656297915059
  0.1250428377564289  0.1246432581095273  0.6247682240018698
  0.1239758208674384  0.1250776871081606  0.8749517896426975
  0.1252586455037107  0.3747149099502711  0.1234366956671217
  0.1244376625031130  0.3752462200527694  0.3734030220520400
  0.1251629687893119  0.3754237559107161  0.6265805292023960
  0.1255203286412948  0.3752898771832299  0.8759469041873191
  0.1244582250128809  0.6257301689264980  0.1252669960904768
  0.1252196978166304  0.6252694813322671  0.3735622708298651
  0.1253009161026072  0.6243174947582617  0.6242184985212850
  0.1262989659310061  0.6261965668886487  0.8742945824450266
  0.1250758754331487  0.8763215448601606  0.1241796373481570
  0.1257110897943757  0.8760803222235777  0.3740743248453474
  0.1255382401035823  0.8745276604631381  0.6248057783429378
  0.1239518507291541  0.8753527314758930  0.8741386406869790
  0.3750803288815022  0.1248579723184492  0.1256437796281349
  0.3757250481874935  0.1240685120982121  0.3755229018294097
  0.3756377146304662  0.1248793844265086  0.6248150938250905
  0.3749916286361064  0.1247526833145483  0.8745628739455321
  0.3755010483513157  0.3741896585860063  0.1248316968396763
  0.3761021178261105  0.3756853692869955  0.3754208876675194
  0.3735346111691127  0.3748849446891519  0.6238378498030627
  0.3757835207419220  0.3751498971725415  0.8754492325383750
  0.3755618091577502  0.6256807392716239  0.1237732912076260
  0.3749718808373965  0.6248505870231192  0.3747743731647936
  0.3755319880127300  0.6248790148950787  0.6248460588494870
  0.3754878589576183  0.6248371277211836  0.8756768870031398
  0.3742204694032598  0.8759622474990747  0.1248557520010015
  0.3742544223256188  0.8749138714572832  0.3761921789567905
  0.3759295236772869  0.8751555443132295  0.6247505543025830
  0.3753637553388127  0.8742133538022940  0.8765144904933869
  0.6254065914945530  0.1245340243288701  0.1253898154596591
  0.6255948141989931  0.1233427334393192  0.3766486348018213
  0.6258127324133489  0.1253092076901969  0.6251966854930936
  0.6238226732011566  0.1247220522410700  0.8753426663311881
  0.6248721123113434  0.3752699632775957  0.1239402276878209
  0.6250452930273317  0.3745250402051605  0.3756866128091625
  0.6265651924415166  0.3746801525452728  0.6255529344780781
  0.6258539259878551  0.3743899772374214  0.8747062016357706
  0.6245654531747378  0.6249627773647093  0.1252006275447805
  0.6250717655640174  0.6253149842755643  0.3744638471206901
  0.6252813165406418  0.6245503761614400  0.6248729667482237
  0.6245910890021210  0.6255468138399986  0.8745256344080493
  0.6250361737601531  0.8748434991311822  0.1247533056447328
  0.6251092486767027  0.8758706277858660  0.3750518105211427
  0.6246805176974263  0.8744631423157461  0.6247355008550294
  0.6242116838431955  0.8745099107390214  0.8755643095179072
  0.8746729947749271  0.1251273882520857  0.1251809585164194
  0.8741198614256546  0.1247896158819467  0.3743292566438678
  0.8751151524356264  0.1236144226963097  0.6252985356872464
  0.8755661216988029  0.1261682345281955  0.8745981199371657
  0.8764051649566492  0.3748230330872370  0.1249368608532678
  0.8763340556159961  0.3746437321936761  0.3757409835272126
  0.8740310445324825  0.3758634423386489  0.6246914838738297
  0.8744073315874656  0.3742987809222130  0.8751899541822310
  0.8749941404592707  0.6255839027447269  0.1247692942899223
  0.8750834085062207  0.6248120114637640  0.3755813980446243
  0.8751199500809725  0.6259171883816148  0.6250720575824066
  0.8748875595518251  0.6244441267826421  0.8755361685417755
  0.8749138598618290  0.8752196980260293  0.1244208643268833
  0.8753918641092626  0.8747867441589818  0.3744025786260706
  0.8748615477722522  0.8760848083604418  0.6243020913863246
  0.8744834019609016  0.8745504704306388  0.8755113241729472
 
  0.38052588E-02  0.12461428E-03 -0.36765585E-02
  0.15845009E-02  0.28507869E-02 -0.23438043E-02
  0.13085629E-03  0.11903414E-03  0.12407410E-02
 -0.48161539E-03  0.17124116E-02 -0.12785649E-02
 -0.51914690E-02 -0.26032054E-02 -0.20187934E-03
 -0.20568705E-03  0.15870861E-03 -0.34019806E-02
 -0.29741228E-03  0.18985434E-02  0.20174379E-02
 -0.69355067E-03  0.13910874E-02  0.77175075E-03
 -0.43556987E-03 -0.32481507E-02  0.39013621E-02
  0.99332778E-03 -0.20530509E-02  0.25003311E-02
 -0.19975035E-02 -0.17377326E-02  0.58159648E-03
  0.13472609E-02  0.86621707E-03  0.28942347E-02
 -0.64792658E-03  0.31845365E-03 -0.53877211E-03
  0.11243567E-02 -0.20315148E-02 -0.86196199E-03
 -0.31102493E-02 -0.13053095E-02 -0.20079197E-03
 -0.47986188E-02  0.32194304E-03  0.20055257E-02
  0.29828744E-03 -0.49909224E-03 -0.11046259E-02
  0.43525815E-03  0.44471962E-02  0.11582887E-02
 -0.90020617E-03  0.10300141E-02  0.11377225E-02
  0.11843411E-02  0.27064702E-03  0.14445969E-02
 -0.24040192E-02  0.73117983E-03 -0.15621285E-02
  0.30004475E-02 -0.30147884E-02 -0.18972530E-02
  0.19909196E-02 -0.21794952E-02  0.20319236E-03
 -0.10463623E-02  0.15207965E-03  0.21004321E-02
  0.29672434E-03  0.26673278E-03  0.12432344E-02
 -0.68676611E-03  0.23730853E-03  0.17269519E-02
 -0.28637205E-02  0.45224323E-02 -0.14372505E-02
  0.68762582E-04  0.45538783E-02 -0.31855073E-03
 -0.40489817E-02 -0.46383961E-03 -0.36525111E-04
  0.24863417E-02  0.79391838E-03 -0.52991966E-03
 -0.41870379E-02 -0.18109751E-02  0.25283932E-04
  0.75142040E-03  0.58153890E-04  0.22375740E-02
  0.25668529E-02 -0.20185908E-03  0.23008372E-02
  0.34584618E-02 -0.18432783E-02  0.84800951E-03
 -0.77709831E-03 -0.11942731E-02 -0.23334489E-03
 -0.11902545E-02  0.50755369E-03 -0.18745018E-02
  0.10860501E-02  0.43303003E-02 -0.36027499E-02
  0.19569778E-02 -0.37187943E-02  0.16683731E-02
 -0.11819577E-02  0.11069188E-02  0.76176576E-03
  0.97806863E-03  0.48044044E-02  0.10134786E-02
 -0.75811189E-03  0.10537260E-02  0.56144505E-03
  0.66643647E-03 -0.24075815E-02 -0.20563811E-02
 -0.28281107E-02  0.24027168E-02 -0.24289978E-02
 -0.26942647E-03  0.19378603E-02  0.12933998E-02
 -0.38025653E-02 -0.27906537E-03  0.21156007E-03
  0.96544028E-03  0.65926750E-03  0.17877203E-03
 -0.52186098E-03  0.14966577E-02 -0.46877870E-02
 -0.22192229E-02  0.84715315E-03  0.45812525E-02
  0.22368336E-02 -0.13202314E-02  0.54670301E-04
  0.86636733E-03 -0.21658613E-02  0.57192085E-03
 -0.25900064E-02 -0.25031073E-03 -0.23239444E-02
 -0.23121808E-02  0.13972696E-02 -0.25555827E-02
 -0.78460409E-03 -0.25528246E-02  0.21121135E-02
 -0.25876597E-02 -0.97830192E-03 -0.10919828E-02
 -0.20188333E-03 -0.47568411E-02  0.16933144E-02
  0.35275004E-02  0.22873574E-02  0.59182801E-03
  0.48256624E-03 -0.18782905E-02  0.11390199E-02
 -0.47652209E-02 -0.23620402E-02 -0.25358662E-02
  0.92323375E-03  0.47337543E-03 -0.72488852E-03
  0.98624602E-03 -0.50923612E-02  0.21570190E-02
  0.31924139E-02 -0.12412382E-02  0.10153343E-02
 -0.47834635E-03 -0.15311710E-02  0.79783667E-03
  0.37616323E-03 -0.12712052E-02 -0.95539176E-03
  0.11832700E-02 -0.52045202E-03  0.14756297E-02
 -0.38938867E-02 -0.50356808E-03  0.21677526E-02
 -0.43949212E-03  0.46674608E-02  0.17961373E-02
  0.13830745E-03 -0.11257068E-02 -0.72541724E-03
 -0.32466058E-02  0.25109233E-03 -0.15506666E-03
  0.82503172E-03 -0.90698069E-03 -0.49517006E-02
 -0.17685465E-02  0.78248119E-03 -0.50586570E-02
  0.51240538E-03  0.13421325E-02  0.50066592E-02
  0.16477239E-02  0.92430283E-03  0.30005978E-02
 -0.17157769E-02  0.23143072E-02  0.84071658E-03
  0.69017369E-03  0.85714957E-03 -0.45579643E-02
  0.94439230E-03 -0.21577598E-02 -0.24782699E-02
  0.41088707E-02  0.37925128E-02 -0.22316770E-02
  0.23878259E-03  0.41914677E-02 -0.26068025E-02
  0.22509599E-02  0.34277529E-02 -0.29369388E-02
  0.17005164E-02 -0.15040700E-02 -0.61505904E-03
 -0.33235030E-02  0.11197011E-02 -0.27382537E-02
  0.25816388E-03 -0.44450277E-03  0.20396605E-02
  0.23028669E-02 -0.29520620E-02  0.16603838E-02
  0.20205566E-02 -0.37781800E-03 -0.57780351E-03
 -0.32588395E-04 -0.78402706E-03 -0.13831649E-02
  0.15910009E-02 -0.25687740E-02 -0.52857370E-03
  0.34887030E-02  0.21658701E-02  0.13239393E-02
 -0.46441472E-02 -0.35722080E-03 -0.36763020E-02
  0.24804165E-02  0.48144346E-03  0.14174095E-02
  0.17736323E-02  0.21537497E-02 -0.38790113E-02
 -0.90300636E-04 -0.47227366E-03 -0.72824060E-03
  0.16829702E-02 -0.37839943E-03 -0.48969798E-03
  0.15393828E-02 -0.52035972E-03  0.21450608E-02
 -0.24728937E-02  0.30526207E-02 -0.44529099E-03
 -0.23649984E-02 -0.27352478E-03  0.37727353E-02
  0.29379346E-02  0.48603611E-03 -0.77825807E-03
  0.11375109E-02 -0.24898461E-02  0.48009622E-02
  0.12870116E-02 -0.14757931E-02  0.12424361E-02
  0.18800079E-02 -0.52496858E-02  0.52251278E-02
  0.25704968E-02  0.98148192E-03  0.63344511E-03
 -0.37281198E-02 -0.87846280E-03  0.10885482E-02
 -0.40303205E-03  0.84576046E-03 -0.33559315E-02
  0.14743850E-03 -0.15117217E-02  0.21709811E-02
  0.49536802E-02 -0.10136527E-02  0.17501378E-02
  0.27105792E-02 -0.19287760E-02 -0.92487244E-03
 -0.13774758E-02 -0.12084102E-03  0.63370523E-03
  0.22644783E-03  0.99391386E-03 -0.17089980E-02
  0.89229430E-03 -0.14259941E-02 -0.40359393E-03
 -0.12901154E-02  0.17239743E-02 -0.14941972E-02
  0.11663425E-03 -0.50386360E-03 -0.77426808E-03
  0.34834623E-03  0.27466840E-02  0.15976010E-03
 -0.10119226E-02 -0.17097712E-02 -0.83884890E-03
 -0.24961326E-02 -0.15531663E-02  0.17896280E-02
 -0.10443296E-02  0.40282329E-03  0.56892843E-03
 -0.27873871E-02 -0.66622877E-03 -0.21254509E-02
  0.36910361E-03 -0.43816242E-02  0.94558486E-03
  0.17834717E-02  0.36935868E-02 -0.12760929E-02
  0.44401095E-02 -0.56049883E-03 -0.19275626E-03
  0.42179434E-02 -0.11327647E-02  0.23421566E-02
 -0.30590871E-02  0.27367264E-02 -0.96831283E-03
 -0.18738278E-02 -0.22222655E-02  0.60931131E-03
 -0.20965204E-04  0.18412174E-02 -0.72245180E-03
  0.26224061E-03 -0.60483526E-03  0.18347726E-02
  0.38447735E-03  0.29037590E-02  0.23500019E-03
 -0.35125600E-03 -0.17724854E-02  0.17049344E-02
 -0.26887904E-03  0.69756755E-03 -0.18370033E-02
  0.12434451E-02 -0.67960544E-03 -0.18998579E-02
 -0.44226975E-03  0.34333608E-02 -0.22093922E-02
 -0.16422316E-02 -0.14187733E-02  0.16118546E-02
 
           1
   1.00000000000000     
 -0.83095069E-04 -0.65977647E-04 -0.33250228E-04 -0.33481132E-04
  0.15005948E-02  0.48847224E-04  0.99855281E+00
  0.62456774E-03  0.11233674E-02  0.24907665E+00
  0.51338907E-04  0.46683117E-04  0.50049286E+00
  0.99981154E+00  0.67575900E-03  0.74949838E+00
  0.99795363E+00  0.24897599E+00  0.99992028E+00
  0.99991822E+00  0.25006322E+00  0.24865911E+00
  0.99988290E+00  0.25074888E+00  0.50079452E+00
  0.99972592E+00  0.25054616E+00  0.75030514E+00
  0.99982628E+00  0.49871939E+00  0.15361238E-02
  0.39281314E-03  0.49919186E+00  0.25098514E+00
  0.99921271E+00  0.49931448E+00  0.50022792E+00
  0.53122541E-03  0.50033988E+00  0.75113743E+00
  0.99974460E+00  0.75012509E+00  0.99978657E+00
  0.44216587E-03  0.74919599E+00  0.24966211E+00
  0.99877356E+00  0.74948411E+00  0.49992235E+00
  0.99810934E+00  0.75012501E+00  0.75079255E+00
  0.25011617E+00  0.99980132E+00  0.99956451E+00
  0.25016999E+00  0.17518760E-02  0.25045521E+00
  0.24964511E+00  0.40637279E-03  0.50044753E+00
  0.25046527E+00  0.10712699E-03  0.75057004E+00
  0.24905270E+00  0.25029037E+00  0.99938431E+00
  0.25118099E+00  0.24881078E+00  0.24925232E+00
  0.25078564E+00  0.24913824E+00  0.50008061E+00
  0.24958654E+00  0.25005803E+00  0.75082770E+00
  0.25011574E+00  0.50010429E+00  0.48937108E-03
  0.24972758E+00  0.50009464E+00  0.25068394E+00
  0.24887383E+00  0.50178366E+00  0.49943515E+00
  0.25002417E+00  0.50179380E+00  0.74987353E+00
  0.24840584E+00  0.74981439E+00  0.99998429E+00
  0.25097910E+00  0.75030798E+00  0.24979295E+00
  0.24835115E+00  0.74928436E+00  0.50001021E+00
  0.25029473E+00  0.75002030E+00  0.75088294E+00
  0.50101063E+00  0.99991942E+00  0.90666392E-03
  0.50136263E+00  0.99927591E+00  0.25033316E+00
  0.49969292E+00  0.99952940E+00  0.49990515E+00
  0.49953017E+00  0.19980946E-03  0.74926056E+00
  0.50042859E+00  0.25170921E+00  0.99858015E+00
  0.50076925E+00  0.24853746E+00  0.25065682E+00
  0.49953163E+00  0.25043605E+00  0.50029714E+00
  0.50038417E+00  0.25189165E+00  0.75040269E+00
  0.49969937E+00  0.50041303E+00  0.22302062E-03
  0.50026452E+00  0.49905233E+00  0.24919087E+00
  0.49888410E+00  0.50094551E+00  0.49904177E+00
  0.49989258E+00  0.50076207E+00  0.75051231E+00
  0.49850009E+00  0.74988819E+00  0.81378372E-04
  0.50038115E+00  0.75025827E+00  0.25007257E+00
  0.49979478E+00  0.75058993E+00  0.49815050E+00
  0.49912397E+00  0.75033238E+00  0.75180713E+00
  0.75088059E+00  0.99948129E+00  0.23891914E-04
  0.75033758E+00  0.99914949E+00  0.25022676E+00
  0.74897816E+00  0.99990483E+00  0.49908438E+00
  0.74909064E+00  0.55196120E-03  0.74899243E+00
  0.74969252E+00  0.24899720E+00  0.83341343E-03
  0.74897834E+00  0.24961717E+00  0.24956683E+00
  0.74991960E+00  0.24812687E+00  0.50066632E+00
  0.75139006E+00  0.25090373E+00  0.75023326E+00
  0.75019082E+00  0.49925998E+00  0.44973659E-03
  0.74811935E+00  0.49907116E+00  0.24899911E+00
  0.75036572E+00  0.50018755E+00  0.49971382E+00
  0.75038875E+00  0.49799018E+00  0.75085018E+00
  0.75126188E+00  0.74951220E+00  0.39951221E-03
  0.74980932E+00  0.74939679E+00  0.25031522E+00
  0.75015040E+00  0.74949845E+00  0.49962276E+00
  0.75046966E+00  0.74979494E+00  0.75058170E+00
  0.12346498E+00  0.12479882E+00  0.12585747E+00
  0.12482677E+00  0.12683497E+00  0.37570651E+00
  0.12505369E+00  0.12455496E+00  0.62471133E+00
  0.12372118E+00  0.12509738E+00  0.87493963E+00
  0.12532336E+00  0.37464377E+00  0.12304832E+00
  0.12429895E+00  0.37530759E+00  0.37300625E+00
  0.12520316E+00  0.37552902E+00  0.62697322E+00
  0.12564957E+00  0.37536237E+00  0.87618225E+00
  0.12432365E+00  0.62591169E+00  0.12533294E+00
  0.12527383E+00  0.62533671E+00  0.37320477E+00
  0.12537499E+00  0.62414825E+00  0.62402412E+00
  0.12662124E+00  0.62649403E+00  0.87411954E+00
  0.12509460E+00  0.87665030E+00  0.12397518E+00
  0.12588764E+00  0.87634917E+00  0.37384397E+00
  0.12567162E+00  0.87440969E+00  0.62475754E+00
  0.12369118E+00  0.87544055E+00  0.87392387E+00
  0.37510058E+00  0.12482311E+00  0.12580376E+00
  0.37590567E+00  0.12383697E+00  0.37565313E+00
  0.37579619E+00  0.12484975E+00  0.62476977E+00
  0.37498907E+00  0.12469119E+00  0.87445439E+00
  0.37562584E+00  0.37398818E+00  0.12479024E+00
  0.37637575E+00  0.37585525E+00  0.37552473E+00
  0.37317035E+00  0.37485693E+00  0.62354950E+00
  0.37597807E+00  0.37518766E+00  0.87556040E+00
  0.37570092E+00  0.62584967E+00  0.12346905E+00
  0.37496480E+00  0.62481354E+00  0.37471725E+00
  0.37566399E+00  0.62484934E+00  0.62480765E+00
  0.37560860E+00  0.62479631E+00  0.87584513E+00
  0.37402651E+00  0.87620168E+00  0.12482083E+00
  0.37406893E+00  0.87489242E+00  0.37648809E+00
  0.37615996E+00  0.87519367E+00  0.62468951E+00
  0.37545297E+00  0.87401807E+00  0.87689105E+00
  0.62550754E+00  0.12441827E+00  0.12548726E+00
  0.62574227E+00  0.12293098E+00  0.37705846E+00
  0.62601435E+00  0.12538619E+00  0.62524637E+00
  0.62353026E+00  0.12465315E+00  0.87542804E+00
  0.62484050E+00  0.37533630E+00  0.12367701E+00
  0.62505686E+00  0.37440647E+00  0.37585689E+00
  0.62695373E+00  0.37460065E+00  0.62569020E+00
  0.62606653E+00  0.37423870E+00  0.87463366E+00
  0.62445741E+00  0.62495330E+00  0.12525033E+00
  0.62508953E+00  0.62539294E+00  0.37432980E+00
  0.62535130E+00  0.62443853E+00  0.62484131E+00
  0.62448990E+00  0.62568203E+00  0.87440844E+00
  0.62504532E+00  0.87480398E+00  0.12469258E+00
  0.62513657E+00  0.87608606E+00  0.37506434E+00
  0.62460115E+00  0.87432904E+00  0.62466971E+00
  0.62401590E+00  0.87438809E+00  0.87570468E+00
  0.87459108E+00  0.12515898E+00  0.12522558E+00
  0.87390124E+00  0.12473736E+00  0.37416255E+00
  0.87514410E+00  0.12327076E+00  0.62537270E+00
  0.87570601E+00  0.12645794E+00  0.87449803E+00
  0.87675342E+00  0.37477907E+00  0.12492174E+00
  0.87666488E+00  0.37455489E+00  0.37592469E+00
  0.87379111E+00  0.37607809E+00  0.62461554E+00
  0.87426036E+00  0.37412448E+00  0.87523774E+00
  0.87499250E+00  0.62572832E+00  0.12471263E+00
  0.87510398E+00  0.62476457E+00  0.37572531E+00
  0.87515011E+00  0.62614494E+00  0.62509049E+00
  0.87486001E+00  0.62430510E+00  0.87566989E+00
  0.87489277E+00  0.87527441E+00  0.12427678E+00
  0.87548939E+00  0.87473344E+00  0.37425357E+00
  0.87482686E+00  0.87635410E+00  0.62412880E+00
  0.87435460E+00  0.87443919E+00  0.87563775E+00
  0.00000000E+00  0.00000000E+00  0.00000000E+00
  0.00000000E+00  0.00000000E+00  0.00000000E+00
  0.00000000E+00  0.00000000E+00  0.00000000E+00
  0.00000000E+00  0.00000000E+00  0.00000000E+00
  0.00000000E+00  0.00000000E+00  0.00000000E+00
  0.00000000E+00  0.00000000E+00  0.00000000E+00
  0.00000000E+00  0.00000000E+00  0.00000000E+00
  0.00000000E+00  0.00000000E+00  0.00000000E+00
  0.00000000E+00  0.00000000E+00  0.00000000E+00
  0.00000000E+00  0.00000000E+00  0.00000000E+00
  0.00000000E+00  0.00000000E+00  0.00000000E+00
  0.00000000E+00  0.00000000E+00  0.00000000E+00
  0.00000000E+00  0.00000000E+00  0.00000000E+00
  0.00000000E+00  0.00000000E+00  0.00000000E+00
  0.00000000E+00  0.00000000E+00  0.00000000E+00
  0.00000000E+00  0.00000000E+00  0.00000000E+00
  0.00000000E+00  0.00000000E+00  0.00000000E+00
  0.00000000E+00  0.00000000E+00  0.00000000E+00
  0.00000000E+00  0.00000000E+00  0.00000000E+00
  0.00000000E+00  0.00000000E+00  0.00000000E+00
  0.00000000E+00  0.00000000E+00  0.00000000E+00
  0.00000000E+00  0.00000000E+00  0.00000000E+00
  0.00000000E+00  0.00000000E+00  0.00000000E+00
  0.00000000E+00  0.00000000E+00  0.00000000E+00
  0.00000000E+00  0.00000000E+00  0.00000000E+00
  0.00000000E+00  0.00000000E+00  0.00000000E+00
  0.00000000E+00  0.00000000E+00  0.00000000E+00
  0.00000000E+00  0.00000000E+00  0.00000000E+00
  0.00000000E+00  0.00000000E+00  0.00000000E+00
  0.00000000E+00  0.00000000E+00  0.00000000E+00
  0.00000000E+00  0.00000000E+00  0.00000000E+00
  0.00000000E+00  0.00000000E+00  0.00000000E+00
  0.00000000E+00  0.00000000E+00  0.00000000E+00
  0.00000000E+00  0.00000000E+00  0.00000000E+00
  0.00000000E+00  0.00000000E+00  0.00000000E+00
  0.00000000E+00  0.00000000E+00  0.00000000E+00
  0.00000000E+00  0.00000000E+00  0.00000000E+00
  0.00000000E+00  0.00000000E+00  0.00000000E+00
  0.00000000E+00  0.00000000E+00  0.00000000E+00
  0.00000000E+00  0.00000000E+00  0.00000000E+00
  0.00000000E+00  0.00000000E+00  0.00000000E+00
  0.00000000E+00  0.00000000E+00  0.00000000E+00
  0.00000000E+00  0.00000000E+00  0.00000000E+00
  0.00000000E+00  0.00000000E+00  0.00000000E+00
  0.00000000E+00  0.00000000E+00  0.00000000E+00
  0.00000000E+00  0.00000000E+00  0.00000000E+00
  0.00000000E+00  0.00000000E+00  0.00000000E+00
  0.00000000E+00  0.00000000E+00  0.00000000E+00
  0.00000000E+00  0.00000000E+00  0.00000000E+00
  0.00000000E+00  0.00000000E+00  0.00000000E+00
  0.00000000E+00  0.00000000E+00  0.00000000E+00
  0.00000000E+00  0.00000000E+00  0.00000000E+00
  0.00000000E+00  0.00000000E+00  0.00000000E+00
  0.00000000E+00  0.00000000E+00  0.00000000E+00
  0.00000000E+00  0.00000000E+00  0.00000000E+00
  0.00000000E+00  0.00000000E+00  0.00000000E+00
  0.00000000E+00  0.00000000E+00  0.00000000E+00
  0.00000000E+00  0.00000000E+00  0.00000000E+00
  0.00000000E+00  0.00000000E+00  0.00000000E+00
  0.00000000E+00  0.00000000E+00  0.00000000E+00
  0.00000000E+00  0.00000000E+00  0.00000000E+00
  0.00000000E+00  0.00000000E+00  0.00000000E+00
  0.00000000E+00  0.00000000E+00  0.00000000E+00
  0.00000000E+00  0.00000000E+00  0.00000000E+00
  0.00000000E+00  0.00000000E+00  0.00000000E+00
  0.00000000E+00  0.00000000E+00  0.00000000E+00
  0.00000000E+00  0.00000000E+00  0.00000000E+00
  0.00000000E+00  0.00000000E+00  0.00000000E+00
  0.00000000E+00  0.00000000E+00  0.00000000E+00
  0.00000000E+00  0.00000000E+00  0.00000000E+00
  0.00000000E+00  0.00000000E+00  0.00000000E+00
  0.00000000E+00  0.00000000E+00  0.00000000E+00
  0.00000000E+00  0.00000000E+00  0.00000000E+00
  0.00000000E+00  0.00000000E+00  0.00000000E+00
  0.00000000E+00  0.00000000E+00  0.00000000E+00
  0.00000000E+00  0.00000000E+00  0.00000000E+00
  0.00000000E+00  0.00000000E+00  0.00000000E+00
  0.00000000E+00  0.00000000E+00  0.00000000E+00
  0.00000000E+00  0.00000000E+00  0.00000000E+00
  0.00000000E+00  0.00000000E+00  0.00000000E+00
  0.00000000E+00  0.00000000E+00  0.00000000E+00
  0.00000000E+00  0.00000000E+00  0.00000000E+00
  0.00000000E+00  0.00000000E+00  0.00000000E+00
  0.00000000E+00  0.00000000E+00  0.00000000E+00
  0.00000000E+00  0.00000000E+00  0.00000000E+00
  0.00000000E+00  0.00000000E+00  0.00000000E+00
  0.00000000E+00  0.00000000E+00  0.00000000E+00
  0.00000000E+00  0.00000000E+00  0.00000000E+00
  0.00000000E+00  0.00000000E+00  0.00000000E+00
  0.00000000E+00  0.00000000E+00  0.00000000E+00
  0.00000000E+00  0.00000000E+00  0.00000000E+00
  0.00000000E+00  0.00000000E+00  0.00000000E+00
  0.00000000E+00  0.00000000E+00  0.00000000E+00
  0.00000000E+00  0.00000000E+00  0.00000000E+00
  0.00000000E+00  0.00000000E+00  0.00000000E+00
  0.00000000E+00  0.00000000E+00  0.00000000E+00
  0.00000000E+00  0.00000000E+00  0.00000000E+00
  0.00000000E+00  0.00000000E+00  0.00000000E+00
  0.00000000E+00  0.00000000E+00  0.00000000E+00
  0.00000000E+00  0.00000000E+00  0.00000000E+00
  0.00000000E+00  0.00000000E+00  0.00000000E+00
  0.00000000E+00  0.00000000E+00  0.00000000E+00
  0.00000000E+00  0.00000000E+00  0.00000000E+00
  0.00000000E+00  0.00000000E+00  0.00000000E+00
  0.00000000E+00  0.00000000E+00  0.00000000E+00
  0.00000000E+00  0.00000000E+00  0.00000000E+00
  0.00000000E+00  0.00000000E+00  0.00000000E+00
  0.00000000E+00  0.00000000E+00  0.00000000E+00
  0.00000000E+00  0.00000000E+00  0.00000000E+00
  0.00000000E+00  0.00000000E+00  0.00000000E+00
  0.00000000E+00  0.00000000E+00  0.00000000E+00
  0.00000000E+00  0.00000000E+00  0.00000000E+00
  0.00000000E+00  0.00000000E+00  0.00000000E+00
  0.00000000E+00  0.00000000E+00  0.00000000E+00
  0.00000000E+00  0.00000000E+00  0.00000000E+00
  0.00000000E+00  0.00000000E+00  0.00000000E+00
  0.00000000E+00  0.00000000E+00  0.00000000E+00
  0.00000000E+00  0.00000000E+00  0.00000000E+00
  0.00000000E+00  0.00000000E+00  0.00000000E+00
  0.00000000E+00  0.00000000E+00  0.00000000E+00
  0.00000000E+00  0.00000000E+00  0.00000000E+00
  0.00000000E+00  0.00000000E+00  0.00000000E+00
  0.00000000E+00  0.00000000E+00  0.00000000E+00
  0.00000000E+00  0.00000000E+00  0.00000000E+00
  0.00000000E+00  0.00000000E+00  0.00000000E+00
  0.00000000E+00  0.00000000E+00  0.00000000E+00
  0.00000000E+00  0.00000000E+00  0.00000000E+00
  0.00000000E+00  0.00000000E+00  0.00000000E+00
  0.00000000E+00  0.00000000E+00  0.00000000E+00
  0.00000000E+00  0.00000000E+00  0.00000000E+00
  0.00000000E+00  0.00000000E+00  0.00000000E+00
  0.00000000E+00  0.00000000E+00  0.00000000E+00
  0.00000000E+00  0.00000000E+00  0.00000000E+00
  0.00000000E+00  0.00000000E+00  0.00000000E+00
  0.00000000E+00  0.00000000E+00  0.00000000E+00
  0.00000000E+00  0.00000000E+00  0.00000000E+00
  0.00000000E+00  0.00000000E+00  0.00000000E+00
  0.00000000E+00  0.00000000E+00  0.00000000E+00
  0.00000000E+00  0.00000000E+00  0.00000000E+00
  0.00000000E+00  0.00000000E+00  0.00000000E+00
  0.00000000E+00  0.00000000E+00  0.00000000E+00
  0.00000000E+00  0.00000000E+00  0.00000000E+00
  0.00000000E+00  0.00000000E+00  0.00000000E+00
  0.00000000E+00  0.00000000E+00  0.00000000E+00
  0.00000000E+00  0.00000000E+00  0.00000000E+00
  0.00000000E+00  0.00000000E+00  0.00000000E+00
  0.00000000E+00  0.00000000E+00  0.00000000E+00
  0.00000000E+00  0.00000000E+00  0.00000000E+00
  0.00000000E+00  0.00000000E+00  0.00000000E+00
  0.00000000E+00  0.00000000E+00  0.00000000E+00
  0.00000000E+00  0.00000000E+00  0.00000000E+00
  0.00000000E+00  0.00000000E+00  0.00000000E+00
  0.00000000E+00  0.00000000E+00  0.00000000E+00
  0.00000000E+00  0.00000000E+00  0.00000000E+00
  0.00000000E+00  0.00000000E+00  0.00000000E+00
  0.00000000E+00  0.00000000E+00  0.00000000E+00
  0.00000000E+00  0.00000000E+00  0.00000000E+00
  0.00000000E+00  0.00000000E+00  0.00000000E+00
  0.00000000E+00  0.00000000E+00  0.00000000E+00
  0.00000000E+00  0.00000000E+00  0.00000000E+00
  0.00000000E+00  0.00000000E+00  0.00000000E+00
  0.00000000E+00  0.00000000E+00  0.00000000E+00
  0.00000000E+00  0.00000000E+00  0.00000000E+00
  0.00000000E+00  0.00000000E+00  0.00000000E+00
  0.00000000E+00  0.00000000E+00  0.00000000E+00
  0.00000000E+00  0.00000000E+00  0.00000000E+00
  0.00000000E+00  0.00000000E+00  0.00000000E+00
  0.00000000E+00  0.00000000E+00  0.00000000E+00
  0.00000000E+00  0.00000000E+00  0.00000000E+00
  0.00000000E+00  0.00000000E+00  0.00000000E+00
  0.00000000E+00  0.00000000E+00  0.00000000E+00
  0.00000000E+00  0.00000000E+00  0.00000000E+00
  0.00000000E+00  0.00000000E+00  0.00000000E+00
  0.00000000E+00  0.00000000E+00  0.00000000E+00
  0.00000000E+00  0.00000000E+00  0.00000000E+00
  0.00000000E+00  0.00000000E+00  0.00000000E+00
  0.00000000E+00  0.00000000E+00  0.00000000E+00
  0.00000000E+00  0.00000000E+00  0.00000000E+00
  0.00000000E+00  0.00000000E+00  0.00000000E+00
  0.00000000E+00  0.00000000E+00  0.00000000E+00
  0.00000000E+00  0.00000000E+00  0.00000000E+00
  0.00000000E+00  0.00000000E+00  0.00000000E+00
  0.00000000E+00  0.00000000E+00  0.00000000E+00
  0.00000000E+00  0.00000000E+00  0.00000000E+00
  0.00000000E+00  0.00000000E+00  0.00000000E+00
  0.00000000E+00  0.00000000E+00  0.00000000E+00
  0.00000000E+00  0.00000000E+00  0.00000000E+00
  0.00000000E+00  0.00000000E+00  0.00000000E+00