units metal  # eV, angstroms, K, ...
dimension 3
boundary p p p
atom_style atomic 
atom_modify sort 0 0.0 

lattice fcc 7.0 origin 0 0 0
region box block 0 2 0 2 0 2
create_box	2 box
create_atoms 1 box

lattice fcc 8 origin 0.5 0 0
create_atoms 2 box

mass 1 20.1797
mass 2 131.293

pair_style      table spline 26
pair_coeff      1 1 Ne_Xe.table UF_Ne-Ne 6
pair_coeff      1 2 Ne_Xe.table UF_Ne-Xe 8
pair_coeff      2 2 Ne_Xe.table UF_Xe-Xe 8

thermo          1000
thermo_style   custom step temp press etotal pe
# per-atom energy
compute        ape all pe/atom
compute        pe all reduce sum c_ape
timestep       0.001
# MD

dump           1 all custom 1 dump.lammpstrj id type x y z fx fy fz c_ape
run 0
