#The input script
units           metal
boundary        p p p
dimension 3
atom_style      atomic

lattice         fcc  3.48
region  copper  block  0 3.48 0 3.48 0 3.48 units box
create_box   1 copper
create_atoms 1 region copper
mass  1  63.546  # grams/mole
replicate 3 3 3

pair_style morse 5
pair_coeff * * 0.3429 1.3588 2.6260 # D0 alpha r0

thermo_style   custom step temp press vol etotal
timestep       0.0005

# equilibration
velocity        all create 6000.0 4928459 rot yes dist gaussian
fix 1 all npt temp 2500.0 2500.0 200.0 iso 0.0 0.0 200.0
thermo         1000
run            200000
unfix 1

#calculation
reset_timestep 0

compute        peratom all pe/atom
compute        pe all reduce sum c_peratom

fix 1 all nve
thermo          1000
dump           1 all custom 100 copper_liquid.dump id type x y z c_peratom
dump           2 all xyz 100 copper_liquid.xyz
run            260000
