pair_style      lj/cut 5.5
pair_coeff      * * 0.87 2.5
